p tw 66 1494
0 1
0 2
0 3
0 4
0 5
0 6
0 7
0 8
0 9
0 10
0 20
0 25
0 30
0 40
0 42
0 46
0 50
0 51
0 52
0 12
0 35
0 38
0 56
0 57
0 58
0 14
0 37
0 54
0 62
0 63
0 64
0 15
0 17
0 24
0 27
0 32
0 48
0 59
0 16
0 34
0 44
0 60
0 29
0 33
0 36
0 39
0 45
0 11
0 23
0 49
0 61
0 18
0 26
0 28
0 31
0 47
1 2
1 3
1 4
1 5
1 6
1 7
1 8
1 9
1 10
1 15
1 19
1 20
1 21
1 22
1 23
1 24
1 25
1 14
1 16
1 29
1 30
1 32
1 33
1 35
1 36
1 46
1 51
1 53
1 54
1 55
1 12
1 37
1 40
1 45
1 59
1 60
1 61
1 27
1 58
1 63
1 17
1 48
1 39
1 42
1 49
1 18
1 26
1 28
1 31
1 47
1 44
1 52
1 64
2 3
2 4
2 5
2 6
2 7
2 8
2 9
2 10
2 14
2 16
2 29
2 30
2 32
2 33
2 23
2 26
2 31
2 41
2 42
2 43
2 44
2 20
2 25
2 40
2 46
2 50
2 51
2 52
2 12
2 37
2 45
2 59
2 60
2 61
2 15
2 17
2 24
2 27
2 48
2 63
2 36
2 39
2 34
2 47
2 57
2 62
3 4
3 5
3 6
3 7
3 8
3 9
3 10
3 14
3 16
3 29
3 30
3 32
3 33
3 23
3 26
3 31
3 41
3 42
3 43
3 44
3 38
3 45
3 46
3 47
3 48
3 49
3 11
3 22
3 51
3 55
3 13
3 63
3 65
3 24
3 52
3 58
3 59
3 64
3 12
3 17
3 61
4 5
4 6
4 7
4 8
4 9
4 10
4 23
4 26
4 31
4 41
4 42
4 43
4 44
4 16
4 30
4 34
4 35
4 37
4 48
4 50
4 51
4 12
4 15
4 25
4 27
4 29
4 54
4 17
4 20
4 32
4 53
4 57
4 60
4 63
4 64
4 36
4 46
4 61
4 18
4 22
5 6
5 7
5 8
5 9
5 10
5 12
5 35
5 38
5 42
5 51
5 56
5 57
5 58
5 15
5 17
5 24
5 27
5 32
5 48
5 59
5 63
5 13
5 14
5 16
5 41
5 46
5 65
5 19
5 20
5 29
5 49
6 7
6 8
6 9
6 10
6 11
6 12
6 13
6 14
6 15
6 16
6 17
6 18
6 19
6 22
6 35
6 36
6 46
6 51
6 53
6 54
6 55
6 27
6 32
6 42
6 58
6 31
6 39
6 43
6 45
6 47
6 49
6 59
6 37
6 40
6 60
6 61
6 41
6 63
6 65
6 34
6 44
6 57
6 24
6 20
6 29
7 8
7 9
7 10
7 14
7 16
7 29
7 30
7 32
7 33
7 23
7 26
7 31
7 41
7 42
7 43
7 44
7 24
7 27
7 46
7 48
7 50
7 52
7 12
7 15
7 25
7 35
7 54
7 11
7 34
7 40
7 56
7 59
7 60
7 20
7 49
7 51
7 63
7 13
7 39
7 47
7 55
7 57
7 36
7 61
7 62
7 58
7 64
7 17
8 9
8 10
8 14
8 16
8 29
8 30
8 32
8 33
8 23
8 26
8 31
8 41
8 42
8 43
8 44
8 24
8 27
8 46
8 48
8 50
8 52
8 11
8 36
8 39
8 45
8 47
8 49
8 59
8 22
8 51
8 55
8 13
8 63
8 65
8 35
8 38
8 56
8 61
8 62
9 10
9 31
9 38
9 42
9 44
9 45
9 46
9 47
9 48
9 49
9 16
9 34
9 51
9 56
9 57
9 59
9 60
9 12
9 14
9 19
9 22
9 36
9 53
9 35
9 58
9 64
9 65
9 24
9 54
9 61
9 17
9 20
9 29
9 63
9 23
9 30
9 32
9 33
9 43
9 52
9 11
9 15
9 39
9 41
9 62
10 14
10 16
10 29
10 30
10 32
10 33
10 31
10 34
10 35
10 37
10 48
10 50
10 51
10 12
10 40
10 45
10 59
10 60
10 61
10 11
10 18
10 24
10 27
10 39
10 56
10 13
10 36
10 38
10 47
10 62
11 12
11 13
11 14
11 15
11 16
11 17
11 18
11 19
11 24
11 25
11 30
11 34
11 35
11 36
11 37
11 38
11 39
11 40
11 31
11 43
11 45
11 47
11 49
11 59
11 22
11 23
11 51
11 55
11 27
11 50
11 56
11 48
11 52
11 60
11 20
11 29
11 46
11 63
11 44
11 61
11 62
11 32
11 41
11 54
11 58
11 33
12 13
12 14
12 15
12 16
12 17
12 18
12 19
12 35
12 38
12 42
12 51
12 56
12 57
12 58
12 37
12 40
12 45
12 59
12 60
12 61
12 20
12 24
12 27
12 54
12 63
12 25
12 29
12 30
12 31
12 23
12 46
12 49
12 50
12 22
12 34
12 36
12 44
12 53
12 21
12 43
12 47
12 26
12 28
12 39
12 52
13 14
13 15
13 16
13 17
13 18
13 19
13 41
13 46
13 51
13 63
13 65
13 20
13 25
13 34
13 39
13 47
13 50
13 55
13 57
13 23
13 31
13 32
13 38
13 43
13 52
13 60
13 62
13 64
13 30
13 36
13 56
13 61
13 37
13 40
13 59
14 15
14 16
14 17
14 18
14 19
14 29
14 30
14 32
14 33
14 27
14 35
14 42
14 51
14 58
14 37
14 38
14 50
14 52
14 54
14 62
14 63
14 64
14 24
14 31
14 39
14 56
14 41
14 46
14 65
14 36
14 45
14 48
14 22
14 34
14 44
14 53
14 57
14 47
14 61
14 21
14 43
14 60
14 20
15 16
15 17
15 18
15 19
15 20
15 21
15 22
15 23
15 24
15 25
15 27
15 37
15 51
15 54
15 58
15 63
15 32
15 48
15 59
15 29
15 30
15 31
15 35
15 36
15 39
15 44
15 49
15 61
15 62
15 34
15 46
15 33
15 41
16 17
16 18
16 19
16 29
16 30
16 32
16 33
16 31
16 34
16 35
16 37
16 48
16 50
16 51
16 44
16 56
16 57
16 59
16 60
16 41
16 46
16 63
16 65
16 27
16 39
16 42
16 45
16 49
16 47
16 58
16 64
17 18
17 19
17 22
17 23
17 26
17 27
17 28
17 29
17 30
17 31
17 24
17 32
17 48
17 59
17 63
17 20
17 53
17 57
17 60
17 64
17 35
17 49
17 36
17 46
17 51
17 61
17 47
17 52
18 19
18 22
18 23
18 26
18 27
18 28
18 29
18 30
18 31
18 32
18 35
18 42
18 51
18 58
18 24
18 39
18 50
18 56
18 47
18 59
18 63
18 25
18 34
18 46
18 61
19 20
19 21
19 22
19 23
19 24
19 25
19 27
19 32
19 35
19 42
19 51
19 58
19 37
19 41
19 46
19 47
19 54
19 34
19 36
19 44
19 53
19 57
19 59
19 61
19 29
19 49
19 63
19 30
19 31
19 43
19 60
20 21
20 22
20 23
20 24
20 25
20 30
20 40
20 42
20 46
20 50
20 51
20 52
20 27
20 37
20 54
20 58
20 63
20 29
20 49
20 34
20 39
20 47
20 55
20 57
20 32
20 53
20 60
20 64
20 35
20 33
20 41
20 61
20 62
21 22
21 23
21 24
21 25
21 26
21 30
21 33
21 42
21 43
21 52
21 53
21 55
21 58
21 59
21 31
21 37
21 46
21 47
21 60
22 23
22 24
22 25
22 26
22 27
22 28
22 29
22 30
22 31
22 35
22 36
22 46
22 51
22 53
22 54
22 55
22 43
22 45
22 47
22 32
22 37
22 41
22 58
22 34
22 44
22 57
22 61
23 24
23 25
23 26
23 27
23 28
23 29
23 30
23 31
23 41
23 42
23 43
23 44
23 45
23 47
23 51
23 55
23 46
23 49
23 50
23 63
23 32
23 53
23 57
23 60
23 64
23 37
23 54
23 58
23 38
23 52
23 62
23 36
23 61
23 33
24 25
24 30
24 34
24 35
24 36
24 37
24 38
24 39
24 40
24 27
24 33
24 46
24 48
24 50
24 52
24 51
24 54
24 58
24 63
24 32
24 59
24 31
24 56
24 41
24 47
24 57
24 62
24 53
24 61
24 29
24 49
24 44
24 64
25 30
25 34
25 35
25 36
25 37
25 38
25 39
25 40
25 42
25 46
25 50
25 51
25 52
25 27
25 29
25 31
25 54
25 47
25 55
25 57
25 44
25 49
25 61
25 62
26 27
26 28
26 29
26 30
26 31
26 41
26 42
26 43
26 44
26 33
26 52
26 53
26 55
26 58
26 59
26 39
26 47
26 63
27 28
27 29
27 30
27 31
27 32
27 35
27 42
27 51
27 58
27 33
27 46
27 48
27 50
27 52
27 37
27 54
27 63
27 59
27 39
27 56
27 36
27 44
27 49
27 61
27 62
27 53
27 57
27 60
27 64
27 45
27 34
28 29
28 30
28 31
28 39
28 47
28 59
28 63
29 30
29 31
29 32
29 33
29 35
29 54
29 36
29 39
29 45
29 48
29 51
29 46
29 49
29 50
29 63
29 43
29 52
29 58
29 41
29 61
29 62
29 47
30 31
30 32
30 33
30 34
30 35
30 36
30 37
30 38
30 39
30 40
30 42
30 46
30 50
30 51
30 52
30 48
30 54
30 62
30 63
30 64
30 43
30 45
30 47
30 55
30 53
30 58
30 59
30 56
30 61
30 60
31 41
31 42
31 43
31 44
31 38
31 45
31 46
31 47
31 48
31 49
31 34
31 35
31 37
31 50
31 51
31 36
31 39
31 59
31 56
31 54
31 32
31 52
31 60
31 62
31 64
31 63
31 61
32 33
32 35
32 42
32 51
32 58
32 48
32 59
32 63
32 36
32 39
32 45
32 53
32 57
32 60
32 64
32 37
32 41
32 46
32 47
32 54
32 49
32 38
32 43
32 52
32 62
32 44
33 46
33 48
33 50
33 52
33 36
33 39
33 45
33 51
33 42
33 43
33 53
33 55
33 58
33 59
33 41
33 61
33 62
34 35
34 36
34 37
34 38
34 39
34 40
34 48
34 50
34 51
34 44
34 56
34 57
34 59
34 60
34 52
34 47
34 55
34 53
34 46
34 58
34 64
34 65
34 41
34 62
34 61
35 36
35 37
35 38
35 39
35 40
35 46
35 51
35 53
35 54
35 55
35 42
35 56
35 57
35 58
35 48
35 50
35 52
35 59
35 60
35 45
35 49
35 47
35 64
35 65
35 63
36 37
36 38
36 39
36 40
36 46
36 51
36 53
36 54
36 55
36 43
36 45
36 47
36 49
36 59
36 48
36 44
36 61
36 62
36 57
36 56
36 60
36 52
36 58
37 38
37 39
37 40
37 48
37 50
37 51
37 45
37 59
37 60
37 61
37 52
37 54
37 62
37 63
37 64
37 58
37 41
37 46
37 47
37 57
37 43
38 39
38 40
38 42
38 44
38 45
38 46
38 47
38 48
38 49
38 51
38 56
38 57
38 58
38 50
38 52
38 54
38 62
38 63
38 64
38 43
38 60
38 61
38 59
39 40
39 43
39 45
39 47
39 49
39 59
39 50
39 56
39 48
39 51
39 55
39 57
39 44
39 61
39 62
39 42
39 63
39 41
39 58
40 42
40 46
40 50
40 51
40 52
40 45
40 59
40 60
40 61
40 48
40 56
40 47
40 62
41 42
41 43
41 44
41 46
41 51
41 63
41 65
41 47
41 54
41 58
41 50
41 57
41 62
41 61
42 43
42 44
42 45
42 46
42 47
42 48
42 49
42 50
42 51
42 52
42 56
42 57
42 58
42 53
42 55
42 59
43 44
43 45
43 47
43 49
43 59
43 51
43 55
43 52
43 60
43 62
43 64
43 53
43 58
43 46
44 45
44 46
44 47
44 48
44 49
44 51
44 56
44 57
44 59
44 60
44 61
44 62
44 53
44 52
44 58
44 64
45 46
45 47
45 48
45 49
45 59
45 60
45 61
45 51
45 55
46 47
46 48
46 49
46 50
46 51
46 52
46 53
46 54
46 55
46 63
46 65
46 58
46 64
46 60
46 61
47 48
47 49
47 59
47 51
47 55
47 50
47 57
47 54
47 58
47 64
47 65
47 62
47 53
47 61
47 56
47 60
47 63
47 52
48 49
48 50
48 52
48 51
48 59
48 63
48 56
48 57
48 60
48 58
48 64
49 59
49 50
49 51
49 63
49 61
49 62
50 51
50 52
50 54
50 62
50 63
50 64
50 56
50 55
50 57
50 59
50 61
51 52
51 53
51 54
51 55
51 56
51 57
51 58
51 63
51 59
51 60
51 65
51 61
51 62
52 54
52 62
52 63
52 64
52 56
52 59
52 60
52 53
52 55
52 58
52 61
53 54
53 55
53 57
53 60
53 63
53 64
53 58
53 59
53 61
54 55
54 62
54 63
54 64
54 58
54 59
54 61
55 57
55 58
55 59
56 57
56 58
56 59
56 60
56 61
56 62
57 58
57 59
57 60
57 63
57 64
57 62
58 63
58 64
58 65
58 59
58 61
58 62
59 60
59 61
59 63
59 62
59 64
60 61
60 63
60 64
60 62
61 62
62 63
62 64
63 64
63 65
64 65
